51
1 0 5
2 0 9
2 1 14
3 0 16
3 1 18
3 2 8
4 0 1
4 1 23
4 2 5
4 3 5
5 0 13
5 1 19
5 2 32
5 3 13
5 4 14
6 0 23
6 1 23
6 2 32
6 3 17
6 4 27
6 5 9
7 0 20
7 1 20
7 2 10
7 3 3
7 4 29
7 5 31
7 6 1
8 0 7
8 1 22
8 2 25
8 3 31
8 4 3
8 5 17
8 6 5
8 7 2
9 0 26
9 1 12
9 2 17
9 3 4
9 4 12
9 5 3
9 6 3
9 7 6
9 8 32
10 0 28
10 1 23
10 2 24
10 3 18
10 4 27
10 5 30
10 6 2
10 7 24
10 8 1
10 9 18
11 0 32
11 1 20
11 2 19
11 3 24
11 4 2
11 5 14
11 6 2
11 7 17
11 8 13
11 9 4
11 10 5
12 0 13
12 1 10
12 2 17
12 3 27
12 4 3
12 5 24
12 6 22
12 7 17
12 8 24
12 9 28
12 10 17
12 11 29
13 0 16
13 1 28
13 2 13
13 3 27
13 4 24
13 5 29
13 6 7
13 7 1
13 8 16
13 9 31
13 10 9
13 11 17
13 12 2
14 0 23
14 1 11
14 2 14
14 3 28
14 4 30
14 5 24
14 6 1
14 7 21
14 8 30
14 9 10
14 10 19
14 11 31
14 12 4
14 13 12
15 0 12
15 1 16
15 2 16
15 3 17
15 4 18
15 5 10
15 6 3
15 7 12
15 8 30
15 9 22
15 10 31
15 11 26
15 12 6
15 13 22
15 14 31
16 0 13
16 1 20
16 2 16
16 3 7
16 4 4
16 5 18
16 6 23
16 7 18
16 8 6
16 9 8
16 10 23
16 11 29
16 12 23
16 13 15
16 14 28
16 15 6
17 0 11
17 1 21
17 2 7
17 3 6
17 4 17
17 5 1
17 6 28
17 7 13
17 8 9
17 9 22
17 10 18
17 11 31
17 12 21
17 13 13
17 14 16
17 15 6
17 16 3
18 0 2
18 1 29
18 2 27
18 3 22
18 4 25
18 5 27
18 6 4
18 7 12
18 8 31
18 9 2
18 10 3
18 11 20
18 12 3
18 13 1
18 14 7
18 15 11
18 16 30
18 17 18
19 0 23
19 1 23
19 2 11
19 3 9
19 4 13
19 5 25
19 6 30
19 7 8
19 8 13
19 9 7
19 10 20
19 11 15
19 12 27
19 13 10
19 14 30
19 15 20
19 16 16
19 17 21
19 18 16
20 0 1
20 1 32
20 2 8
20 3 30
20 4 27
20 5 32
20 6 3
20 7 11
20 8 17
20 9 12
20 10 3
20 11 2
20 12 9
20 13 15
20 14 9
20 15 1
20 16 6
20 17 2
20 18 18
20 19 15
21 0 31
21 1 3
21 2 13
21 3 11
21 4 13
21 5 29
21 6 2
21 7 2
21 8 19
21 9 11
21 10 21
21 11 31
21 12 4
21 13 19
21 14 26
21 15 4
21 16 4
21 17 7
21 18 26
21 19 4
21 20 9
22 0 10
22 1 16
22 2 27
22 3 9
22 4 30
22 5 11
22 6 24
22 7 31
22 8 8
22 9 16
22 10 21
22 11 14
22 12 29
22 13 19
22 14 15
22 15 20
22 16 23
22 17 20
22 18 13
22 19 15
22 20 18
22 21 13
23 0 30
23 1 8
23 2 7
23 3 11
23 4 14
23 5 2
23 6 11
23 7 1
23 8 29
23 9 10
23 10 31
23 11 23
23 12 21
23 13 26
23 14 12
23 15 9
23 16 30
23 17 27
23 18 17
23 19 27
23 20 4
23 21 31
23 22 15
24 0 32
24 1 27
24 2 6
24 3 21
24 4 20
24 5 28
24 6 27
24 7 31
24 8 31
24 9 8
24 10 32
24 11 17
24 12 17
24 13 14
24 14 30
24 15 12
24 16 27
24 17 16
24 18 28
24 19 4
24 20 12
24 21 4
24 22 20
24 23 14
25 0 23
25 1 18
25 2 32
25 3 22
25 4 7
25 5 13
25 6 22
25 7 24
25 8 20
25 9 27
25 10 26
25 11 26
25 12 7
25 13 1
25 14 14
25 15 17
25 16 22
25 17 17
25 18 17
25 19 12
25 20 20
25 21 26
25 22 14
25 23 20
25 24 11
26 0 21
26 1 18
26 2 32
26 3 24
26 4 26
26 5 2
26 6 32
26 7 30
26 8 18
26 9 28
26 10 14
26 11 1
26 12 22
26 13 19
26 14 21
26 15 20
26 16 7
26 17 9
26 18 18
26 19 9
26 20 18
26 21 3
26 22 10
26 23 21
26 24 28
26 25 25
27 0 10
27 1 19
27 2 8
27 3 25
27 4 5
27 5 21
27 6 24
27 7 18
27 8 3
27 9 25
27 10 25
27 11 12
27 12 19
27 13 24
27 14 26
27 15 5
27 16 3
27 17 14
27 18 7
27 19 28
27 20 27
27 21 9
27 22 19
27 23 14
27 24 10
27 25 16
27 26 3
28 0 3
28 1 26
28 2 17
28 3 14
28 4 17
28 5 10
28 6 11
28 7 30
28 8 26
28 9 18
28 10 9
28 11 11
28 12 22
28 13 22
28 14 13
28 15 11
28 16 23
28 17 6
28 18 26
28 19 14
28 20 2
28 21 9
28 22 17
28 23 8
28 24 30
28 25 10
28 26 7
28 27 8
29 0 13
29 1 6
29 2 17
29 3 25
29 4 10
29 5 27
29 6 1
29 7 4
29 8 22
29 9 15
29 10 24
29 11 9
29 12 8
29 13 19
29 14 3
29 15 31
29 16 22
29 17 17
29 18 21
29 19 22
29 20 11
29 21 26
29 22 27
29 23 26
29 24 15
29 25 13
29 26 17
29 27 18
29 28 17
30 0 31
30 1 20
30 2 19
30 3 24
30 4 17
30 5 8
30 6 1
30 7 8
30 8 4
30 9 26
30 10 10
30 11 11
30 12 17
30 13 29
30 14 16
30 15 25
30 16 26
30 17 18
30 18 24
30 19 8
30 20 18
30 21 24
30 22 17
30 23 26
30 24 9
30 25 17
30 26 29
30 27 31
30 28 16
30 29 32
31 0 1
31 1 2
31 2 13
31 3 11
31 4 2
31 5 20
31 6 22
31 7 27
31 8 32
31 9 9
31 10 30
31 11 25
31 12 10
31 13 31
31 14 22
31 15 9
31 16 14
31 17 9
31 18 8
31 19 30
31 20 31
31 21 7
31 22 17
31 23 10
31 24 24
31 25 3
31 26 24
31 27 32
31 28 4
31 29 6
31 30 27
32 0 26
32 1 17
32 2 19
32 3 17
32 4 32
32 5 17
32 6 30
32 7 22
32 8 28
32 9 15
32 10 24
32 11 22
32 12 6
32 13 10
32 14 17
32 15 5
32 16 26
32 17 1
32 18 25
32 19 1
32 20 10
32 21 26
32 22 26
32 23 17
32 24 16
32 25 4
32 26 26
32 27 11
32 28 23
32 29 32
32 30 26
32 31 16
33 0 17
33 1 10
33 2 3
33 3 4
33 4 8
33 5 6
33 6 13
33 7 26
33 8 21
33 9 10
33 10 9
33 11 23
33 12 26
33 13 23
33 14 25
33 15 28
33 16 5
33 17 3
33 18 31
33 19 3
33 20 28
33 21 3
33 22 21
33 23 29
33 24 7
33 25 27
33 26 8
33 27 1
33 28 26
33 29 20
33 30 24
33 31 4
33 32 12
34 0 26
34 1 18
34 2 22
34 3 28
34 4 32
34 5 28
34 6 7
34 7 7
34 8 9
34 9 22
34 10 29
34 11 4
34 12 3
34 13 6
34 14 2
34 15 24
34 16 28
34 17 31
34 18 27
34 19 2
34 20 22
34 21 3
34 22 23
34 23 6
34 24 9
34 25 19
34 26 31
34 27 3
34 28 18
34 29 15
34 30 17
34 31 18
34 32 11
34 33 6
35 0 28
35 1 30
35 2 17
35 3 14
35 4 25
35 5 16
35 6 18
35 7 11
35 8 9
35 9 13
35 10 21
35 11 9
35 12 1
35 13 31
35 14 27
35 15 26
35 16 22
35 17 19
35 18 13
35 19 5
35 20 13
35 21 5
35 22 21
35 23 6
35 24 14
35 25 12
35 26 12
35 27 28
35 28 12
35 29 8
35 30 21
35 31 15
35 32 11
35 33 30
35 34 16
36 0 14
36 1 16
36 2 19
36 3 17
36 4 8
36 5 22
36 6 30
36 7 29
36 8 24
36 9 23
36 10 13
36 11 7
36 12 10
36 13 27
36 14 26
36 15 18
36 16 28
36 17 17
36 18 1
36 19 20
36 20 15
36 21 11
36 22 15
36 23 8
36 24 21
36 25 26
36 26 29
36 27 20
36 28 16
36 29 9
36 30 31
36 31 14
36 32 27
36 33 12
36 34 26
36 35 9
37 0 4
37 1 16
37 2 4
37 3 14
37 4 19
37 5 13
37 6 29
37 7 22
37 8 15
37 9 31
37 10 22
37 11 20
37 12 13
37 13 13
37 14 3
37 15 31
37 16 10
37 17 29
37 18 13
37 19 24
37 20 12
37 21 4
37 22 11
37 23 29
37 24 30
37 25 4
37 26 31
37 27 12
37 28 8
37 29 30
37 30 28
37 31 13
37 32 25
37 33 6
37 34 23
37 35 13
37 36 8
38 0 10
38 1 23
38 2 1
38 3 16
38 4 22
38 5 1
38 6 27
38 7 2
38 8 23
38 9 2
38 10 9
38 11 3
38 12 10
38 13 20
38 14 12
38 15 22
38 16 13
38 17 26
38 18 19
38 19 9
38 20 7
38 21 23
38 22 17
38 23 2
38 24 30
38 25 2
38 26 20
38 27 31
38 28 4
38 29 28
38 30 13
38 31 25
38 32 11
38 33 24
38 34 27
38 35 31
38 36 13
38 37 21
39 0 32
39 1 22
39 2 7
39 3 10
39 4 15
39 5 28
39 6 13
39 7 3
39 8 11
39 9 14
39 10 9
39 11 11
39 12 29
39 13 1
39 14 14
39 15 3
39 16 28
39 17 24
39 18 1
39 19 12
39 20 13
39 21 26
39 22 32
39 23 13
39 24 28
39 25 3
39 26 22
39 27 21
39 28 5
39 29 2
39 30 29
39 31 17
39 32 32
39 33 20
39 34 10
39 35 32
39 36 22
39 37 17
39 38 9
40 0 15
40 1 4
40 2 23
40 3 14
40 4 25
40 5 27
40 6 24
40 7 27
40 8 6
40 9 29
40 10 28
40 11 11
40 12 22
40 13 19
40 14 26
40 15 24
40 16 27
40 17 30
40 18 30
40 19 14
40 20 31
40 21 32
40 22 19
40 23 31
40 24 30
40 25 17
40 26 30
40 27 27
40 28 9
40 29 25
40 30 32
40 31 1
40 32 9
40 33 3
40 34 10
40 35 9
40 36 29
40 37 22
40 38 11
40 39 11
41 0 16
41 1 5
41 2 10
41 3 9
41 4 30
41 5 5
41 6 32
41 7 1
41 8 22
41 9 31
41 10 6
41 11 10
41 12 11
41 13 8
41 14 10
41 15 3
41 16 21
41 17 23
41 18 20
41 19 20
41 20 12
41 21 30
41 22 10
41 23 10
41 24 32
41 25 10
41 26 17
41 27 25
41 28 24
41 29 31
41 30 5
41 31 14
41 32 1
41 33 1
41 34 12
41 35 1
41 36 6
41 37 25
41 38 8
41 39 28
41 40 16
42 0 11
42 1 32
42 2 12
42 3 20
42 4 2
42 5 28
42 6 2
42 7 31
42 8 25
42 9 21
42 10 5
42 11 24
42 12 14
42 13 25
42 14 1
42 15 9
42 16 3
42 17 18
42 18 29
42 19 18
42 20 25
42 21 2
42 22 22
42 23 18
42 24 9
42 25 2
42 26 10
42 27 29
42 28 16
42 29 6
42 30 17
42 31 3
42 32 31
42 33 29
42 34 14
42 35 1
42 36 24
42 37 9
42 38 24
42 39 3
42 40 24
42 41 7
43 0 8
43 1 12
43 2 11
43 3 9
43 4 1
43 5 5
43 6 21
43 7 19
43 8 12
43 9 2
43 10 22
43 11 25
43 12 18
43 13 21
43 14 25
43 15 2
43 16 31
43 17 1
43 18 15
43 19 19
43 20 27
43 21 21
43 22 2
43 23 32
43 24 1
43 25 12
43 26 9
43 27 21
43 28 19
43 29 2
43 30 32
43 31 27
43 32 25
43 33 22
43 34 1
43 35 6
43 36 22
43 37 2
43 38 25
43 39 30
43 40 11
43 41 21
43 42 9
44 0 28
44 1 32
44 2 29
44 3 4
44 4 1
44 5 23
44 6 4
44 7 16
44 8 11
44 9 4
44 10 31
44 11 21
44 12 4
44 13 27
44 14 4
44 15 32
44 16 26
44 17 13
44 18 1
44 19 1
44 20 20
44 21 5
44 22 32
44 23 28
44 24 24
44 25 22
44 26 3
44 27 17
44 28 6
44 29 31
44 30 13
44 31 26
44 32 31
44 33 2
44 34 3
44 35 11
44 36 23
44 37 21
44 38 19
44 39 24
44 40 24
44 41 24
44 42 15
44 43 14
45 0 29
45 1 15
45 2 18
45 3 8
45 4 1
45 5 31
45 6 14
45 7 2
45 8 8
45 9 4
45 10 12
45 11 32
45 12 2
45 13 15
45 14 3
45 15 27
45 16 13
45 17 7
45 18 13
45 19 30
45 20 31
45 21 19
45 22 10
45 23 17
45 24 2
45 25 4
45 26 28
45 27 13
45 28 18
45 29 26
45 30 16
45 31 9
45 32 2
45 33 2
45 34 2
45 35 3
45 36 17
45 37 20
45 38 3
45 39 21
45 40 7
45 41 15
45 42 32
45 43 26
45 44 13
46 0 4
46 1 28
46 2 5
46 3 8
46 4 10
46 5 25
46 6 7
46 7 3
46 8 30
46 9 3
46 10 13
46 11 15
46 12 5
46 13 13
46 14 10
46 15 9
46 16 23
46 17 11
46 18 29
46 19 18
46 20 31
46 21 3
46 22 28
46 23 13
46 24 1
46 25 11
46 26 15
46 27 2
46 28 15
46 29 8
46 30 25
46 31 7
46 32 28
46 33 12
46 34 6
46 35 5
46 36 19
46 37 31
46 38 31
46 39 3
46 40 16
46 41 23
46 42 5
46 43 27
46 44 8
46 45 32
47 0 21
47 1 6
47 2 30
47 3 19
47 4 19
47 5 18
47 6 10
47 7 15
47 8 32
47 9 28
47 10 26
47 11 9
47 12 25
47 13 13
47 14 23
47 15 27
47 16 31
47 17 12
47 18 26
47 19 24
47 20 14
47 21 15
47 22 32
47 23 22
47 24 25
47 25 15
47 26 15
47 27 3
47 28 30
47 29 26
47 30 2
47 31 28
47 32 18
47 33 15
47 34 19
47 35 1
47 36 27
47 37 28
47 38 27
47 39 17
47 40 13
47 41 14
47 42 5
47 43 28
47 44 10
47 45 6
47 46 24
48 0 1
48 1 24
48 2 9
48 3 17
48 4 17
48 5 32
48 6 19
48 7 29
48 8 9
48 9 8
48 10 16
48 11 14
48 12 8
48 13 20
48 14 28
48 15 28
48 16 27
48 17 28
48 18 18
48 19 6
48 20 1
48 21 30
48 22 27
48 23 13
48 24 4
48 25 15
48 26 32
48 27 15
48 28 3
48 29 24
48 30 23
48 31 22
48 32 24
48 33 17
48 34 4
48 35 26
48 36 30
48 37 3
48 38 6
48 39 20
48 40 27
48 41 19
48 42 17
48 43 4
48 44 7
48 45 12
48 46 18
48 47 16
49 0 15
49 1 21
49 2 5
49 3 5
49 4 18
49 5 22
49 6 22
49 7 22
49 8 32
49 9 13
49 10 1
49 11 5
49 12 4
49 13 14
49 14 1
49 15 27
49 16 23
49 17 8
49 18 28
49 19 7
49 20 24
49 21 25
49 22 10
49 23 3
49 24 8
49 25 8
49 26 32
49 27 29
49 28 9
49 29 12
49 30 18
49 31 24
49 32 7
49 33 31
49 34 11
49 35 19
49 36 13
49 37 3
49 38 18
49 39 28
49 40 27
49 41 4
49 42 27
49 43 2
49 44 14
49 45 2
49 46 25
49 47 15
49 48 23
50 0 7
50 1 19
50 2 26
50 3 24
50 4 20
50 5 17
50 6 20
50 7 15
50 8 21
50 9 23
50 10 21
50 11 7
50 12 15
50 13 29
50 14 6
50 15 20
50 16 13
50 17 28
50 18 31
50 19 10
50 20 29
50 21 26
50 22 8
50 23 11
50 24 25
50 25 15
50 26 11
50 27 2
50 28 8
50 29 20
50 30 10
50 31 18
50 32 18
50 33 15
50 34 25
50 35 22
50 36 8
50 37 4
50 38 14
50 39 19
50 40 29
50 41 29
50 42 5
50 43 10
50 44 24
50 45 3
50 46 23
50 47 13
50 48 30
50 49 8
